c 6 __UCLIBC_MALLOC_DEBUGGING__
c 2 __UCLIBC_HAS_THREADS_NATIVE__
c 1 __UCLIBC_UCLINUX_BROKEN_MUNMAP__
c 3 __UCLIBC_HAS_XLOCALE__
c 7 __UCLIBC_HAS_LOCALE__
c 4 __MALLOC__
c 5 __UCLIBC_HAS_THREADS__
p cnf 7 1
-1 -3 -5 -4 -2 7 -6 1
